c status 60 1469385976855
c status 27 1469385976856
c status 26 1469385976860
s td 80 26 120
b 1 27 31
b 2 110 26
b 3 36 32
b 4 14 38
b 5 66 88
b 6 99 26 32
b 7 107 6 114
b 8 119 9 23
b 9 26 32 44
b 10 44 31
b 11 31 30
b 12 30 55
b 13 35 38 2
b 14 79 5 72 78 4 113 103
b 15 29 3 1
b 16 88 34 28
b 17 33 77 28
b 18 34 55 28
b 19 55 77 28
b 20 28 3
b 21 95 10 47 96 17
b 22 5 72 78 4 113 9 103
b 23 72 78 4 113 112 9 103
b 24 78 4 113 112 9 86 103
b 25 49 6 81 114 53 2 1
b 26 75 22 65 37 108 51 46
b 27 6 81 114 53 2 111 1
b 28 81 114 53 7 2 111 1
b 29 100 24 71 97 21 82 84 18
b 30 52 89 40 47 96 60 116 17
b 31 89 25 39 40 47 96 60 116 17
b 32 25 10 39 40 47 73 90 96 60 116 17
b 33 60 116 17 18
b 34 17 18 54
b 35 24 71 97 21 117 82 84 8 18
b 36 71 97 21 117 82 84 8 18 7
b 37 106 62 118 105 43 63
b 38 74 104 15 59 16 43 50 76
b 39 97 21 117 82 84 8 18 7 46
b 40 21 117 82 84 8 18 7 98 46
b 41 101 67 7 2 108 54
b 42 4 113 112 9 69 86 103 109
b 43 22 65 37 108 111 51 46 76
b 44 114 53 57 8 7 2 111 1
b 45 19 80 92 42 85 98 1 48 120
b 46 53 84 57 8 7 2 111 1 61
b 47 83 8 91 115 111 1 87
b 48 93 57 115 108 105 61 69
b 49 104 15 59 16 11 43 48 50 76
b 50 113 112 9 50 58 69 86 103 109
b 51 117 82 62 118 84 8 18 7 98 46
b 52 15 59 16 11 43 46 48 50 70 76
b 53 82 62 118 67 84 8 18 7 115 98 46
b 54 59 16 11 43 46 48 50 61 70 76 109
b 55 16 11 23 43 46 48 50 61 63 70 76 109
b 56 80 92 42 12 85 98 1 56 94 48 120
b 57 92 42 12 85 98 1 51 56 68 94 48 120
b 58 65 37 2 108 111 12 51 46 76 120
b 59 112 9 11 45 50 58 69 86 87 103 109
b 60 9 11 23 45 50 58 69 86 87 103 109 120
b 61 20 41 51 56 68 94 102 58 86 103
b 62 41 1 51 56 68 94 102 11 58 70 86 87 103
b 63 37 2 108 111 105 12 51 11 46 58 76 120
b 64 42 12 54 64 85 98 1 51 56 68 94 102 48 120
b 65 62 118 67 84 57 8 18 7 115 105 98 43 46 63
b 66 118 67 84 57 8 18 7 115 108 105 98 11 43 46 61 63
b 67 67 84 57 8 18 7 115 2 108 105 54 98 11 23 43 46 61 63
b 68 84 57 8 18 7 115 2 108 111 105 54 85 98 1 11 23 43 46 61 63
b 69 57 8 18 7 115 2 108 111 105 12 54 85 98 1 11 23 43 46 61 63 69
b 70 8 91 18 7 115 2 108 111 105 12 54 85 98 1 11 23 43 46 61 63 69 87
b 71 91 18 7 115 2 108 111 105 12 54 64 85 98 1 11 23 43 46 48 61 63 69 87
b 72 18 7 115 2 108 111 105 12 54 64 85 98 1 11 23 43 45 46 48 61 63 69 87
b 73 7 115 2 108 111 105 12 54 64 85 98 1 56 11 23 43 45 46 48 61 63 69 87
b 74 115 2 108 111 105 12 54 64 85 98 1 56 102 11 23 43 45 46 48 61 63 69 76 87
b 75 2 108 111 105 12 54 64 85 98 1 51 56 102 11 23 43 45 46 48 58 61 63 69 76 87 120
b 76 105 12 54 64 85 98 1 51 56 102 11 23 43 45 46 48 58 61 63 69 76 87 103 120
b 77 12 54 64 85 98 1 51 56 68 94 102 11 23 43 45 46 48 58 61 63 69 76 87 103 120
b 78 1 51 56 68 94 102 11 23 43 45 46 48 58 61 63 69 70 76 86 87 103 120
b 79 11 23 43 45 46 48 50 58 61 63 69 70 76 86 87 103 109 120
b 80 13
1 10
1 11
11 12
12 19
19 17
19 18
18 16
16 5
10 9
9 6
18 20
6 3
20 15
6 2
15 78
78 77
77 76
76 75
75 74
74 73
73 72
72 71
71 70
70 69
69 68
68 67
78 79
67 66
77 64
66 65
78 62
79 55
64 57
79 60
75 63
65 53
55 54
57 56
60 59
62 61
63 58
53 51
54 52
68 46
56 45
59 50
51 40
52 49
40 39
39 36
36 35
35 29
58 43
46 44
50 42
49 38
70 47
69 48
43 26
44 28
28 27
27 25
42 24
24 23
23 22
22 14
67 41
65 37
71 34
34 33
33 30
30 31
31 32
32 21
60 8
25 7
67 13
13 4
1 80
